src/zimpl/lpfiles/knapsack50nr8.lp
\ This file was automatically generated by Zimpl
\ param file := "instances/knapsack50nr8.txt";
\ param n := read file as "1n" use 1 comment "#";
\ do print n;
\ param m := read file as "1n" skip 1 use 1 comment "#";
\ do print m;
\ param k := read file as "1n" skip 2 use 1 comment "#";
\ do print k;
\ set Items := {1 to n};
\ set Knapsacks := {1 to m};
\ set Capacities := {1 to k};
\ param p[Items] := read file as "1n" skip 3 use n comment "#";
\ param w[Items*Capacities] := read file as "n+" skip 3+n use n comment "#";
\ param c[Knapsacks*Capacities] := read file as "n+" skip 3+2*n use m comment "#";
\ var x[Knapsacks * Items] binary;
\ maximize profit: sum <i> in Knapsacks: sum <j> in Items: p[j]* x[i,j];
\ subto cap: forall <i> in Knapsacks: forall <h> in Capacities: sum <j> in Items: w[j,h]*x[i,j] <= c[i,h];
\ subto one: forall <j> in Items: sum <i> in Knapsacks: x[i,j] <= 1;
\Problem name: zimplfiles/knapsack50nr8.zpl
Maximize
 profit:  +449 x#1#1 +23 x#1#2 +520 x#1#3 +311 x#1#4 +788 x#1#5 +243 x#1#6
  +319 x#1#7 +999 x#1#8 +652 x#1#9 +426 x#1#10 +907 x#1#11 +935 x#1#12
  +597 x#1#13 +88 x#1#14 +514 x#1#15 +722 x#1#16 +558 x#1#17 +399 x#1#18
  +447 x#1#19 +923 x#1#20 +261 x#1#21 +161 x#1#22 +14 x#1#23 +143 x#1#24
  +978 x#1#25 +256 x#1#26 +230 x#1#27 +89 x#1#28 +581 x#1#29 +132 x#1#30
  +41 x#1#31 +530 x#1#32 +35 x#1#33 +896 x#1#34 +175 x#1#35 +786 x#1#36
  +354 x#1#37 +81 x#1#38 +193 x#1#39 +327 x#1#40 +70 x#1#41 +924 x#1#42
  +379 x#1#43 +304 x#1#44 +228 x#1#45 +403 x#1#46 +961 x#1#47 +301 x#1#48
  +531 x#1#49 +300 x#1#50 +449 x#2#1 +23 x#2#2 +520 x#2#3 +311 x#2#4
  +788 x#2#5 +243 x#2#6 +319 x#2#7 +999 x#2#8 +652 x#2#9 +426 x#2#10
  +907 x#2#11 +935 x#2#12 +597 x#2#13 +88 x#2#14 +514 x#2#15 +722 x#2#16
  +558 x#2#17 +399 x#2#18 +447 x#2#19 +923 x#2#20 +261 x#2#21 +161 x#2#22
  +14 x#2#23 +143 x#2#24 +978 x#2#25 +256 x#2#26 +230 x#2#27 +89 x#2#28
  +581 x#2#29 +132 x#2#30 +41 x#2#31 +530 x#2#32 +35 x#2#33 +896 x#2#34
  +175 x#2#35 +786 x#2#36 +354 x#2#37 +81 x#2#38 +193 x#2#39 +327 x#2#40
  +70 x#2#41 +924 x#2#42 +379 x#2#43 +304 x#2#44 +228 x#2#45 +403 x#2#46
  +961 x#2#47 +301 x#2#48 +531 x#2#49 +300 x#2#50 +449 x#3#1 +23 x#3#2
  +520 x#3#3 +311 x#3#4 +788 x#3#5 +243 x#3#6 +319 x#3#7 +999 x#3#8
  +652 x#3#9 +426 x#3#10 +907 x#3#11 +935 x#3#12 +597 x#3#13 +88 x#3#14
  +514 x#3#15 +722 x#3#16 +558 x#3#17 +399 x#3#18 +447 x#3#19 +923 x#3#20
  +261 x#3#21 +161 x#3#22 +14 x#3#23 +143 x#3#24 +978 x#3#25 +256 x#3#26
  +230 x#3#27 +89 x#3#28 +581 x#3#29 +132 x#3#30 +41 x#3#31 +530 x#3#32
  +35 x#3#33 +896 x#3#34 +175 x#3#35 +786 x#3#36 +354 x#3#37 +81 x#3#38
  +193 x#3#39 +327 x#3#40 +70 x#3#41 +924 x#3#42 +379 x#3#43 +304 x#3#44
  +228 x#3#45 +403 x#3#46 +961 x#3#47 +301 x#3#48 +531 x#3#49 +300 x#3#50
  +449 x#4#1 +23 x#4#2 +520 x#4#3 +311 x#4#4 +788 x#4#5 +243 x#4#6
  +319 x#4#7 +999 x#4#8 +652 x#4#9 +426 x#4#10 +907 x#4#11 +935 x#4#12
  +597 x#4#13 +88 x#4#14 +514 x#4#15 +722 x#4#16 +558 x#4#17 +399 x#4#18
  +447 x#4#19 +923 x#4#20 +261 x#4#21 +161 x#4#22 +14 x#4#23 +143 x#4#24
  +978 x#4#25 +256 x#4#26 +230 x#4#27 +89 x#4#28 +581 x#4#29 +132 x#4#30
  +41 x#4#31 +530 x#4#32 +35 x#4#33 +896 x#4#34 +175 x#4#35 +786 x#4#36
  +354 x#4#37 +81 x#4#38 +193 x#4#39 +327 x#4#40 +70 x#4#41 +924 x#4#42
  +379 x#4#43 +304 x#4#44 +228 x#4#45 +403 x#4#46 +961 x#4#47 +301 x#4#48
  +531 x#4#49 +300 x#4#50 +449 x#5#1 +23 x#5#2 +520 x#5#3 +311 x#5#4
  +788 x#5#5 +243 x#5#6 +319 x#5#7 +999 x#5#8 +652 x#5#9 +426 x#5#10
  +907 x#5#11 +935 x#5#12 +597 x#5#13 +88 x#5#14 +514 x#5#15 +722 x#5#16
  +558 x#5#17 +399 x#5#18 +447 x#5#19 +923 x#5#20 +261 x#5#21 +161 x#5#22
  +14 x#5#23 +143 x#5#24 +978 x#5#25 +256 x#5#26 +230 x#5#27 +89 x#5#28
  +581 x#5#29 +132 x#5#30 +41 x#5#31 +530 x#5#32 +35 x#5#33 +896 x#5#34
  +175 x#5#35 +786 x#5#36 +354 x#5#37 +81 x#5#38 +193 x#5#39 +327 x#5#40
  +70 x#5#41 +924 x#5#42 +379 x#5#43 +304 x#5#44 +228 x#5#45 +403 x#5#46
  +961 x#5#47 +301 x#5#48 +531 x#5#49 +300 x#5#50
Subject to
 cap_1:
  +3 x#1#50 +621 x#1#49 +331 x#1#48 +170 x#1#47 +209 x#1#46 +465 x#1#45
  +896 x#1#44 +17 x#1#43 +55 x#1#42 +698 x#1#41 +769 x#1#40 +773 x#1#39
  +270 x#1#38 +868 x#1#37 +527 x#1#36 +374 x#1#35 +657 x#1#34 +412 x#1#33
  +729 x#1#32 +519 x#1#31 +104 x#1#30 +304 x#1#29 +160 x#1#28 +292 x#1#27
  +394 x#1#26 +438 x#1#25 +473 x#1#24 +396 x#1#23 +158 x#1#22 +732 x#1#21
  +735 x#1#20 +349 x#1#19 +22 x#1#18 +86 x#1#17 +531 x#1#16 +317 x#1#15
  +913 x#1#14 +165 x#1#13 +209 x#1#12 +697 x#1#11 +68 x#1#10 +516 x#1#9
  +457 x#1#8 +773 x#1#7 +356 x#1#6 +341 x#1#5 +694 x#1#4 +795 x#1#3
  +106 x#1#2 +481 x#1#1 <= 1146
 cap_2:
  +192 x#1#50 +606 x#1#49 +636 x#1#48 +468 x#1#47 +188 x#1#46 +639 x#1#45
  +328 x#1#44 +704 x#1#43 +208 x#1#42 +982 x#1#41 +941 x#1#40 +687 x#1#39
  +711 x#1#38 +727 x#1#37 +154 x#1#36 +529 x#1#35 +909 x#1#34 +223 x#1#33
  +622 x#1#32 +965 x#1#31 +319 x#1#30 +737 x#1#29 +648 x#1#28 +236 x#1#27
  +570 x#1#26 +498 x#1#25 +570 x#1#24 +752 x#1#23 +960 x#1#22 +129 x#1#21
  +117 x#1#20 +631 x#1#19 +105 x#1#18 +7 x#1#17 +270 x#1#16 +968 x#1#15
  +189 x#1#14 +488 x#1#13 +607 x#1#12 +489 x#1#11 +398 x#1#10 +52 x#1#9
  +786 x#1#8 +890 x#1#7 +187 x#1#6 +36 x#1#5 +872 x#1#4 +386 x#1#3
  +633 x#1#2 +964 x#1#1 <= 1135
 cap_3:
  +3 x#2#50 +621 x#2#49 +331 x#2#48 +170 x#2#47 +209 x#2#46 +465 x#2#45
  +896 x#2#44 +17 x#2#43 +55 x#2#42 +698 x#2#41 +769 x#2#40 +773 x#2#39
  +270 x#2#38 +868 x#2#37 +527 x#2#36 +374 x#2#35 +657 x#2#34 +412 x#2#33
  +729 x#2#32 +519 x#2#31 +104 x#2#30 +304 x#2#29 +160 x#2#28 +292 x#2#27
  +394 x#2#26 +438 x#2#25 +473 x#2#24 +396 x#2#23 +158 x#2#22 +732 x#2#21
  +735 x#2#20 +349 x#2#19 +22 x#2#18 +86 x#2#17 +531 x#2#16 +317 x#2#15
  +913 x#2#14 +165 x#2#13 +209 x#2#12 +697 x#2#11 +68 x#2#10 +516 x#2#9
  +457 x#2#8 +773 x#2#7 +356 x#2#6 +341 x#2#5 +694 x#2#4 +795 x#2#3
  +106 x#2#2 +481 x#2#1 <= 1310
 cap_4:
  +192 x#2#50 +606 x#2#49 +636 x#2#48 +468 x#2#47 +188 x#2#46 +639 x#2#45
  +328 x#2#44 +704 x#2#43 +208 x#2#42 +982 x#2#41 +941 x#2#40 +687 x#2#39
  +711 x#2#38 +727 x#2#37 +154 x#2#36 +529 x#2#35 +909 x#2#34 +223 x#2#33
  +622 x#2#32 +965 x#2#31 +319 x#2#30 +737 x#2#29 +648 x#2#28 +236 x#2#27
  +570 x#2#26 +498 x#2#25 +570 x#2#24 +752 x#2#23 +960 x#2#22 +129 x#2#21
  +117 x#2#20 +631 x#2#19 +105 x#2#18 +7 x#2#17 +270 x#2#16 +968 x#2#15
  +189 x#2#14 +488 x#2#13 +607 x#2#12 +489 x#2#11 +398 x#2#10 +52 x#2#9
  +786 x#2#8 +890 x#2#7 +187 x#2#6 +36 x#2#5 +872 x#2#4 +386 x#2#3
  +633 x#2#2 +964 x#2#1 <= 1099
 cap_5:
  +3 x#3#50 +621 x#3#49 +331 x#3#48 +170 x#3#47 +209 x#3#46 +465 x#3#45
  +896 x#3#44 +17 x#3#43 +55 x#3#42 +698 x#3#41 +769 x#3#40 +773 x#3#39
  +270 x#3#38 +868 x#3#37 +527 x#3#36 +374 x#3#35 +657 x#3#34 +412 x#3#33
  +729 x#3#32 +519 x#3#31 +104 x#3#30 +304 x#3#29 +160 x#3#28 +292 x#3#27
  +394 x#3#26 +438 x#3#25 +473 x#3#24 +396 x#3#23 +158 x#3#22 +732 x#3#21
  +735 x#3#20 +349 x#3#19 +22 x#3#18 +86 x#3#17 +531 x#3#16 +317 x#3#15
  +913 x#3#14 +165 x#3#13 +209 x#3#12 +697 x#3#11 +68 x#3#10 +516 x#3#9
  +457 x#3#8 +773 x#3#7 +356 x#3#6 +341 x#3#5 +694 x#3#4 +795 x#3#3
  +106 x#3#2 +481 x#3#1 <= 1176
 cap_6:
  +192 x#3#50 +606 x#3#49 +636 x#3#48 +468 x#3#47 +188 x#3#46 +639 x#3#45
  +328 x#3#44 +704 x#3#43 +208 x#3#42 +982 x#3#41 +941 x#3#40 +687 x#3#39
  +711 x#3#38 +727 x#3#37 +154 x#3#36 +529 x#3#35 +909 x#3#34 +223 x#3#33
  +622 x#3#32 +965 x#3#31 +319 x#3#30 +737 x#3#29 +648 x#3#28 +236 x#3#27
  +570 x#3#26 +498 x#3#25 +570 x#3#24 +752 x#3#23 +960 x#3#22 +129 x#3#21
  +117 x#3#20 +631 x#3#19 +105 x#3#18 +7 x#3#17 +270 x#3#16 +968 x#3#15
  +189 x#3#14 +488 x#3#13 +607 x#3#12 +489 x#3#11 +398 x#3#10 +52 x#3#9
  +786 x#3#8 +890 x#3#7 +187 x#3#6 +36 x#3#5 +872 x#3#4 +386 x#3#3
  +633 x#3#2 +964 x#3#1 <= 1722
 cap_7:
  +3 x#4#50 +621 x#4#49 +331 x#4#48 +170 x#4#47 +209 x#4#46 +465 x#4#45
  +896 x#4#44 +17 x#4#43 +55 x#4#42 +698 x#4#41 +769 x#4#40 +773 x#4#39
  +270 x#4#38 +868 x#4#37 +527 x#4#36 +374 x#4#35 +657 x#4#34 +412 x#4#33
  +729 x#4#32 +519 x#4#31 +104 x#4#30 +304 x#4#29 +160 x#4#28 +292 x#4#27
  +394 x#4#26 +438 x#4#25 +473 x#4#24 +396 x#4#23 +158 x#4#22 +732 x#4#21
  +735 x#4#20 +349 x#4#19 +22 x#4#18 +86 x#4#17 +531 x#4#16 +317 x#4#15
  +913 x#4#14 +165 x#4#13 +209 x#4#12 +697 x#4#11 +68 x#4#10 +516 x#4#9
  +457 x#4#8 +773 x#4#7 +356 x#4#6 +341 x#4#5 +694 x#4#4 +795 x#4#3
  +106 x#4#2 +481 x#4#1 <= 996
 cap_8:
  +192 x#4#50 +606 x#4#49 +636 x#4#48 +468 x#4#47 +188 x#4#46 +639 x#4#45
  +328 x#4#44 +704 x#4#43 +208 x#4#42 +982 x#4#41 +941 x#4#40 +687 x#4#39
  +711 x#4#38 +727 x#4#37 +154 x#4#36 +529 x#4#35 +909 x#4#34 +223 x#4#33
  +622 x#4#32 +965 x#4#31 +319 x#4#30 +737 x#4#29 +648 x#4#28 +236 x#4#27
  +570 x#4#26 +498 x#4#25 +570 x#4#24 +752 x#4#23 +960 x#4#22 +129 x#4#21
  +117 x#4#20 +631 x#4#19 +105 x#4#18 +7 x#4#17 +270 x#4#16 +968 x#4#15
  +189 x#4#14 +488 x#4#13 +607 x#4#12 +489 x#4#11 +398 x#4#10 +52 x#4#9
  +786 x#4#8 +890 x#4#7 +187 x#4#6 +36 x#4#5 +872 x#4#4 +386 x#4#3
  +633 x#4#2 +964 x#4#1 <= 1428
 cap_9:
  +3 x#5#50 +621 x#5#49 +331 x#5#48 +170 x#5#47 +209 x#5#46 +465 x#5#45
  +896 x#5#44 +17 x#5#43 +55 x#5#42 +698 x#5#41 +769 x#5#40 +773 x#5#39
  +270 x#5#38 +868 x#5#37 +527 x#5#36 +374 x#5#35 +657 x#5#34 +412 x#5#33
  +729 x#5#32 +519 x#5#31 +104 x#5#30 +304 x#5#29 +160 x#5#28 +292 x#5#27
  +394 x#5#26 +438 x#5#25 +473 x#5#24 +396 x#5#23 +158 x#5#22 +732 x#5#21
  +735 x#5#20 +349 x#5#19 +22 x#5#18 +86 x#5#17 +531 x#5#16 +317 x#5#15
  +913 x#5#14 +165 x#5#13 +209 x#5#12 +697 x#5#11 +68 x#5#10 +516 x#5#9
  +457 x#5#8 +773 x#5#7 +356 x#5#6 +341 x#5#5 +694 x#5#4 +795 x#5#3
  +106 x#5#2 +481 x#5#1 <= 5039
 cap_10:
  +192 x#5#50 +606 x#5#49 +636 x#5#48 +468 x#5#47 +188 x#5#46 +639 x#5#45
  +328 x#5#44 +704 x#5#43 +208 x#5#42 +982 x#5#41 +941 x#5#40 +687 x#5#39
  +711 x#5#38 +727 x#5#37 +154 x#5#36 +529 x#5#35 +909 x#5#34 +223 x#5#33
  +622 x#5#32 +965 x#5#31 +319 x#5#30 +737 x#5#29 +648 x#5#28 +236 x#5#27
  +570 x#5#26 +498 x#5#25 +570 x#5#24 +752 x#5#23 +960 x#5#22 +129 x#5#21
  +117 x#5#20 +631 x#5#19 +105 x#5#18 +7 x#5#17 +270 x#5#16 +968 x#5#15
  +189 x#5#14 +488 x#5#13 +607 x#5#12 +489 x#5#11 +398 x#5#10 +52 x#5#9
  +786 x#5#8 +890 x#5#7 +187 x#5#6 +36 x#5#5 +872 x#5#4 +386 x#5#3
  +633 x#5#2 +964 x#5#1 <= 6159
 one_1:
  + x#5#1 + x#4#1 + x#3#1 + x#2#1 + x#1#1 <= 1
 one_2:
  + x#5#2 + x#4#2 + x#3#2 + x#2#2 + x#1#2 <= 1
 one_3:
  + x#5#3 + x#4#3 + x#3#3 + x#2#3 + x#1#3 <= 1
 one_4:
  + x#5#4 + x#4#4 + x#3#4 + x#2#4 + x#1#4 <= 1
 one_5:
  + x#5#5 + x#4#5 + x#3#5 + x#2#5 + x#1#5 <= 1
 one_6:
  + x#5#6 + x#4#6 + x#3#6 + x#2#6 + x#1#6 <= 1
 one_7:
  + x#5#7 + x#4#7 + x#3#7 + x#2#7 + x#1#7 <= 1
 one_8:
  + x#5#8 + x#4#8 + x#3#8 + x#2#8 + x#1#8 <= 1
 one_9:
  + x#5#9 + x#4#9 + x#3#9 + x#2#9 + x#1#9 <= 1
 one_10:
  + x#5#10 + x#4#10 + x#3#10 + x#2#10 + x#1#10 <= 1
 one_11:
  + x#5#11 + x#4#11 + x#3#11 + x#2#11 + x#1#11 <= 1
 one_12:
  + x#5#12 + x#4#12 + x#3#12 + x#2#12 + x#1#12 <= 1
 one_13:
  + x#5#13 + x#4#13 + x#3#13 + x#2#13 + x#1#13 <= 1
 one_14:
  + x#5#14 + x#4#14 + x#3#14 + x#2#14 + x#1#14 <= 1
 one_15:
  + x#5#15 + x#4#15 + x#3#15 + x#2#15 + x#1#15 <= 1
 one_16:
  + x#5#16 + x#4#16 + x#3#16 + x#2#16 + x#1#16 <= 1
 one_17:
  + x#5#17 + x#4#17 + x#3#17 + x#2#17 + x#1#17 <= 1
 one_18:
  + x#5#18 + x#4#18 + x#3#18 + x#2#18 + x#1#18 <= 1
 one_19:
  + x#5#19 + x#4#19 + x#3#19 + x#2#19 + x#1#19 <= 1
 one_20:
  + x#5#20 + x#4#20 + x#3#20 + x#2#20 + x#1#20 <= 1
 one_21:
  + x#5#21 + x#4#21 + x#3#21 + x#2#21 + x#1#21 <= 1
 one_22:
  + x#5#22 + x#4#22 + x#3#22 + x#2#22 + x#1#22 <= 1
 one_23:
  + x#5#23 + x#4#23 + x#3#23 + x#2#23 + x#1#23 <= 1
 one_24:
  + x#5#24 + x#4#24 + x#3#24 + x#2#24 + x#1#24 <= 1
 one_25:
  + x#5#25 + x#4#25 + x#3#25 + x#2#25 + x#1#25 <= 1
 one_26:
  + x#5#26 + x#4#26 + x#3#26 + x#2#26 + x#1#26 <= 1
 one_27:
  + x#5#27 + x#4#27 + x#3#27 + x#2#27 + x#1#27 <= 1
 one_28:
  + x#5#28 + x#4#28 + x#3#28 + x#2#28 + x#1#28 <= 1
 one_29:
  + x#5#29 + x#4#29 + x#3#29 + x#2#29 + x#1#29 <= 1
 one_30:
  + x#5#30 + x#4#30 + x#3#30 + x#2#30 + x#1#30 <= 1
 one_31:
  + x#5#31 + x#4#31 + x#3#31 + x#2#31 + x#1#31 <= 1
 one_32:
  + x#5#32 + x#4#32 + x#3#32 + x#2#32 + x#1#32 <= 1
 one_33:
  + x#5#33 + x#4#33 + x#3#33 + x#2#33 + x#1#33 <= 1
 one_34:
  + x#5#34 + x#4#34 + x#3#34 + x#2#34 + x#1#34 <= 1
 one_35:
  + x#5#35 + x#4#35 + x#3#35 + x#2#35 + x#1#35 <= 1
 one_36:
  + x#5#36 + x#4#36 + x#3#36 + x#2#36 + x#1#36 <= 1
 one_37:
  + x#5#37 + x#4#37 + x#3#37 + x#2#37 + x#1#37 <= 1
 one_38:
  + x#5#38 + x#4#38 + x#3#38 + x#2#38 + x#1#38 <= 1
 one_39:
  + x#5#39 + x#4#39 + x#3#39 + x#2#39 + x#1#39 <= 1
 one_40:
  + x#5#40 + x#4#40 + x#3#40 + x#2#40 + x#1#40 <= 1
 one_41:
  + x#5#41 + x#4#41 + x#3#41 + x#2#41 + x#1#41 <= 1
 one_42:
  + x#5#42 + x#4#42 + x#3#42 + x#2#42 + x#1#42 <= 1
 one_43:
  + x#5#43 + x#4#43 + x#3#43 + x#2#43 + x#1#43 <= 1
 one_44:
  + x#5#44 + x#4#44 + x#3#44 + x#2#44 + x#1#44 <= 1
 one_45:
  + x#5#45 + x#4#45 + x#3#45 + x#2#45 + x#1#45 <= 1
 one_46:
  + x#5#46 + x#4#46 + x#3#46 + x#2#46 + x#1#46 <= 1
 one_47:
  + x#5#47 + x#4#47 + x#3#47 + x#2#47 + x#1#47 <= 1
 one_48:
  + x#5#48 + x#4#48 + x#3#48 + x#2#48 + x#1#48 <= 1
 one_49:
  + x#5#49 + x#4#49 + x#3#49 + x#2#49 + x#1#49 <= 1
 one_50:
  + x#5#50 + x#4#50 + x#3#50 + x#2#50 + x#1#50 <= 1
Bounds
 0 <= x#1#1 <= 1
 0 <= x#1#2 <= 1
 0 <= x#1#3 <= 1
 0 <= x#1#4 <= 1
 0 <= x#1#5 <= 1
 0 <= x#1#6 <= 1
 0 <= x#1#7 <= 1
 0 <= x#1#8 <= 1
 0 <= x#1#9 <= 1
 0 <= x#1#10 <= 1
 0 <= x#1#11 <= 1
 0 <= x#1#12 <= 1
 0 <= x#1#13 <= 1
 0 <= x#1#14 <= 1
 0 <= x#1#15 <= 1
 0 <= x#1#16 <= 1
 0 <= x#1#17 <= 1
 0 <= x#1#18 <= 1
 0 <= x#1#19 <= 1
 0 <= x#1#20 <= 1
 0 <= x#1#21 <= 1
 0 <= x#1#22 <= 1
 0 <= x#1#23 <= 1
 0 <= x#1#24 <= 1
 0 <= x#1#25 <= 1
 0 <= x#1#26 <= 1
 0 <= x#1#27 <= 1
 0 <= x#1#28 <= 1
 0 <= x#1#29 <= 1
 0 <= x#1#30 <= 1
 0 <= x#1#31 <= 1
 0 <= x#1#32 <= 1
 0 <= x#1#33 <= 1
 0 <= x#1#34 <= 1
 0 <= x#1#35 <= 1
 0 <= x#1#36 <= 1
 0 <= x#1#37 <= 1
 0 <= x#1#38 <= 1
 0 <= x#1#39 <= 1
 0 <= x#1#40 <= 1
 0 <= x#1#41 <= 1
 0 <= x#1#42 <= 1
 0 <= x#1#43 <= 1
 0 <= x#1#44 <= 1
 0 <= x#1#45 <= 1
 0 <= x#1#46 <= 1
 0 <= x#1#47 <= 1
 0 <= x#1#48 <= 1
 0 <= x#1#49 <= 1
 0 <= x#1#50 <= 1
 0 <= x#2#1 <= 1
 0 <= x#2#2 <= 1
 0 <= x#2#3 <= 1
 0 <= x#2#4 <= 1
 0 <= x#2#5 <= 1
 0 <= x#2#6 <= 1
 0 <= x#2#7 <= 1
 0 <= x#2#8 <= 1
 0 <= x#2#9 <= 1
 0 <= x#2#10 <= 1
 0 <= x#2#11 <= 1
 0 <= x#2#12 <= 1
 0 <= x#2#13 <= 1
 0 <= x#2#14 <= 1
 0 <= x#2#15 <= 1
 0 <= x#2#16 <= 1
 0 <= x#2#17 <= 1
 0 <= x#2#18 <= 1
 0 <= x#2#19 <= 1
 0 <= x#2#20 <= 1
 0 <= x#2#21 <= 1
 0 <= x#2#22 <= 1
 0 <= x#2#23 <= 1
 0 <= x#2#24 <= 1
 0 <= x#2#25 <= 1
 0 <= x#2#26 <= 1
 0 <= x#2#27 <= 1
 0 <= x#2#28 <= 1
 0 <= x#2#29 <= 1
 0 <= x#2#30 <= 1
 0 <= x#2#31 <= 1
 0 <= x#2#32 <= 1
 0 <= x#2#33 <= 1
 0 <= x#2#34 <= 1
 0 <= x#2#35 <= 1
 0 <= x#2#36 <= 1
 0 <= x#2#37 <= 1
 0 <= x#2#38 <= 1
 0 <= x#2#39 <= 1
 0 <= x#2#40 <= 1
 0 <= x#2#41 <= 1
 0 <= x#2#42 <= 1
 0 <= x#2#43 <= 1
 0 <= x#2#44 <= 1
 0 <= x#2#45 <= 1
 0 <= x#2#46 <= 1
 0 <= x#2#47 <= 1
 0 <= x#2#48 <= 1
 0 <= x#2#49 <= 1
 0 <= x#2#50 <= 1
 0 <= x#3#1 <= 1
 0 <= x#3#2 <= 1
 0 <= x#3#3 <= 1
 0 <= x#3#4 <= 1
 0 <= x#3#5 <= 1
 0 <= x#3#6 <= 1
 0 <= x#3#7 <= 1
 0 <= x#3#8 <= 1
 0 <= x#3#9 <= 1
 0 <= x#3#10 <= 1
 0 <= x#3#11 <= 1
 0 <= x#3#12 <= 1
 0 <= x#3#13 <= 1
 0 <= x#3#14 <= 1
 0 <= x#3#15 <= 1
 0 <= x#3#16 <= 1
 0 <= x#3#17 <= 1
 0 <= x#3#18 <= 1
 0 <= x#3#19 <= 1
 0 <= x#3#20 <= 1
 0 <= x#3#21 <= 1
 0 <= x#3#22 <= 1
 0 <= x#3#23 <= 1
 0 <= x#3#24 <= 1
 0 <= x#3#25 <= 1
 0 <= x#3#26 <= 1
 0 <= x#3#27 <= 1
 0 <= x#3#28 <= 1
 0 <= x#3#29 <= 1
 0 <= x#3#30 <= 1
 0 <= x#3#31 <= 1
 0 <= x#3#32 <= 1
 0 <= x#3#33 <= 1
 0 <= x#3#34 <= 1
 0 <= x#3#35 <= 1
 0 <= x#3#36 <= 1
 0 <= x#3#37 <= 1
 0 <= x#3#38 <= 1
 0 <= x#3#39 <= 1
 0 <= x#3#40 <= 1
 0 <= x#3#41 <= 1
 0 <= x#3#42 <= 1
 0 <= x#3#43 <= 1
 0 <= x#3#44 <= 1
 0 <= x#3#45 <= 1
 0 <= x#3#46 <= 1
 0 <= x#3#47 <= 1
 0 <= x#3#48 <= 1
 0 <= x#3#49 <= 1
 0 <= x#3#50 <= 1
 0 <= x#4#1 <= 1
 0 <= x#4#2 <= 1
 0 <= x#4#3 <= 1
 0 <= x#4#4 <= 1
 0 <= x#4#5 <= 1
 0 <= x#4#6 <= 1
 0 <= x#4#7 <= 1
 0 <= x#4#8 <= 1
 0 <= x#4#9 <= 1
 0 <= x#4#10 <= 1
 0 <= x#4#11 <= 1
 0 <= x#4#12 <= 1
 0 <= x#4#13 <= 1
 0 <= x#4#14 <= 1
 0 <= x#4#15 <= 1
 0 <= x#4#16 <= 1
 0 <= x#4#17 <= 1
 0 <= x#4#18 <= 1
 0 <= x#4#19 <= 1
 0 <= x#4#20 <= 1
 0 <= x#4#21 <= 1
 0 <= x#4#22 <= 1
 0 <= x#4#23 <= 1
 0 <= x#4#24 <= 1
 0 <= x#4#25 <= 1
 0 <= x#4#26 <= 1
 0 <= x#4#27 <= 1
 0 <= x#4#28 <= 1
 0 <= x#4#29 <= 1
 0 <= x#4#30 <= 1
 0 <= x#4#31 <= 1
 0 <= x#4#32 <= 1
 0 <= x#4#33 <= 1
 0 <= x#4#34 <= 1
 0 <= x#4#35 <= 1
 0 <= x#4#36 <= 1
 0 <= x#4#37 <= 1
 0 <= x#4#38 <= 1
 0 <= x#4#39 <= 1
 0 <= x#4#40 <= 1
 0 <= x#4#41 <= 1
 0 <= x#4#42 <= 1
 0 <= x#4#43 <= 1
 0 <= x#4#44 <= 1
 0 <= x#4#45 <= 1
 0 <= x#4#46 <= 1
 0 <= x#4#47 <= 1
 0 <= x#4#48 <= 1
 0 <= x#4#49 <= 1
 0 <= x#4#50 <= 1
 0 <= x#5#1 <= 1
 0 <= x#5#2 <= 1
 0 <= x#5#3 <= 1
 0 <= x#5#4 <= 1
 0 <= x#5#5 <= 1
 0 <= x#5#6 <= 1
 0 <= x#5#7 <= 1
 0 <= x#5#8 <= 1
 0 <= x#5#9 <= 1
 0 <= x#5#10 <= 1
 0 <= x#5#11 <= 1
 0 <= x#5#12 <= 1
 0 <= x#5#13 <= 1
 0 <= x#5#14 <= 1
 0 <= x#5#15 <= 1
 0 <= x#5#16 <= 1
 0 <= x#5#17 <= 1
 0 <= x#5#18 <= 1
 0 <= x#5#19 <= 1
 0 <= x#5#20 <= 1
 0 <= x#5#21 <= 1
 0 <= x#5#22 <= 1
 0 <= x#5#23 <= 1
 0 <= x#5#24 <= 1
 0 <= x#5#25 <= 1
 0 <= x#5#26 <= 1
 0 <= x#5#27 <= 1
 0 <= x#5#28 <= 1
 0 <= x#5#29 <= 1
 0 <= x#5#30 <= 1
 0 <= x#5#31 <= 1
 0 <= x#5#32 <= 1
 0 <= x#5#33 <= 1
 0 <= x#5#34 <= 1
 0 <= x#5#35 <= 1
 0 <= x#5#36 <= 1
 0 <= x#5#37 <= 1
 0 <= x#5#38 <= 1
 0 <= x#5#39 <= 1
 0 <= x#5#40 <= 1
 0 <= x#5#41 <= 1
 0 <= x#5#42 <= 1
 0 <= x#5#43 <= 1
 0 <= x#5#44 <= 1
 0 <= x#5#45 <= 1
 0 <= x#5#46 <= 1
 0 <= x#5#47 <= 1
 0 <= x#5#48 <= 1
 0 <= x#5#49 <= 1
 0 <= x#5#50 <= 1
General
 x#1#1
 x#1#2
 x#1#3
 x#1#4
 x#1#5
 x#1#6
 x#1#7
 x#1#8
 x#1#9
 x#1#10
 x#1#11
 x#1#12
 x#1#13
 x#1#14
 x#1#15
 x#1#16
 x#1#17
 x#1#18
 x#1#19
 x#1#20
 x#1#21
 x#1#22
 x#1#23
 x#1#24
 x#1#25
 x#1#26
 x#1#27
 x#1#28
 x#1#29
 x#1#30
 x#1#31
 x#1#32
 x#1#33
 x#1#34
 x#1#35
 x#1#36
 x#1#37
 x#1#38
 x#1#39
 x#1#40
 x#1#41
 x#1#42
 x#1#43
 x#1#44
 x#1#45
 x#1#46
 x#1#47
 x#1#48
 x#1#49
 x#1#50
 x#2#1
 x#2#2
 x#2#3
 x#2#4
 x#2#5
 x#2#6
 x#2#7
 x#2#8
 x#2#9
 x#2#10
 x#2#11
 x#2#12
 x#2#13
 x#2#14
 x#2#15
 x#2#16
 x#2#17
 x#2#18
 x#2#19
 x#2#20
 x#2#21
 x#2#22
 x#2#23
 x#2#24
 x#2#25
 x#2#26
 x#2#27
 x#2#28
 x#2#29
 x#2#30
 x#2#31
 x#2#32
 x#2#33
 x#2#34
 x#2#35
 x#2#36
 x#2#37
 x#2#38
 x#2#39
 x#2#40
 x#2#41
 x#2#42
 x#2#43
 x#2#44
 x#2#45
 x#2#46
 x#2#47
 x#2#48
 x#2#49
 x#2#50
 x#3#1
 x#3#2
 x#3#3
 x#3#4
 x#3#5
 x#3#6
 x#3#7
 x#3#8
 x#3#9
 x#3#10
 x#3#11
 x#3#12
 x#3#13
 x#3#14
 x#3#15
 x#3#16
 x#3#17
 x#3#18
 x#3#19
 x#3#20
 x#3#21
 x#3#22
 x#3#23
 x#3#24
 x#3#25
 x#3#26
 x#3#27
 x#3#28
 x#3#29
 x#3#30
 x#3#31
 x#3#32
 x#3#33
 x#3#34
 x#3#35
 x#3#36
 x#3#37
 x#3#38
 x#3#39
 x#3#40
 x#3#41
 x#3#42
 x#3#43
 x#3#44
 x#3#45
 x#3#46
 x#3#47
 x#3#48
 x#3#49
 x#3#50
 x#4#1
 x#4#2
 x#4#3
 x#4#4
 x#4#5
 x#4#6
 x#4#7
 x#4#8
 x#4#9
 x#4#10
 x#4#11
 x#4#12
 x#4#13
 x#4#14
 x#4#15
 x#4#16
 x#4#17
 x#4#18
 x#4#19
 x#4#20
 x#4#21
 x#4#22
 x#4#23
 x#4#24
 x#4#25
 x#4#26
 x#4#27
 x#4#28
 x#4#29
 x#4#30
 x#4#31
 x#4#32
 x#4#33
 x#4#34
 x#4#35
 x#4#36
 x#4#37
 x#4#38
 x#4#39
 x#4#40
 x#4#41
 x#4#42
 x#4#43
 x#4#44
 x#4#45
 x#4#46
 x#4#47
 x#4#48
 x#4#49
 x#4#50
 x#5#1
 x#5#2
 x#5#3
 x#5#4
 x#5#5
 x#5#6
 x#5#7
 x#5#8
 x#5#9
 x#5#10
 x#5#11
 x#5#12
 x#5#13
 x#5#14
 x#5#15
 x#5#16
 x#5#17
 x#5#18
 x#5#19
 x#5#20
 x#5#21
 x#5#22
 x#5#23
 x#5#24
 x#5#25
 x#5#26
 x#5#27
 x#5#28
 x#5#29
 x#5#30
 x#5#31
 x#5#32
 x#5#33
 x#5#34
 x#5#35
 x#5#36
 x#5#37
 x#5#38
 x#5#39
 x#5#40
 x#5#41
 x#5#42
 x#5#43
 x#5#44
 x#5#45
 x#5#46
 x#5#47
 x#5#48
 x#5#49
 x#5#50
End
